17174 16826 1587
18296 13704 1741
14766 17234 1440
17389 13611 1745
18927 16073 1650
17643 16357 1643
21911 11089 1358
21588 12412 1506
21228 13772 1493
20018 13982 1687
20401 12599 1680
18849 16151 1650
21213 13787 1526
18638 14362 1732
21575 11425 1521
21910 11090 1398
15928 17072 1564
21337 12663 1564
18095 15905 1686
21017 12983 1608
18218 13782 1741
14834 17166 1541
20241 14759 1443
20432 13568 1660
18919 15081 1713
19710 14290 1697
19981 15019 1637
17517 16483 1631
17253 16747 1599
21811 11189 1459
15094 16906 1599
14788 17212 1488
21888 12112 1394
21076 13924 1543
20786 12214 1640
21153 11847 1598
16751 14249 1735
15892 17108 1507
20692 13308 1638
21392 11608 1568
16043 16957 1589
19378 13622 1731
